p wcnf 159 318 319 
1 -66 -109 0 
1 -13 -90 0 
1 45 -111 0 
1 -69 -88 0 
1 139 -63 0 
1 -51 -57 0 
1 120 23 0 
1 -69 -2 0 
1 29 106 0 
1 147 63 0 
1 -49 59 0 
1 159 -13 0 
1 158 -52 0 
1 -51 -94 0 
1 151 -150 0 
1 -105 54 0 
1 -143 -115 0 
1 153 36 0 
1 -137 -76 0 
1 17 123 0 
1 5 -18 0 
1 -64 -20 0 
1 137 -147 0 
1 7 69 0 
1 -84 -147 0 
1 -118 -19 0 
1 -103 -144 0 
1 151 97 0 
1 107 -98 0 
1 103 12 0 
1 40 -74 0 
1 146 34 0 
1 54 -56 0 
1 50 131 0 
1 131 65 0 
1 -54 -87 0 
1 -56 -143 0 
1 65 104 0 
1 146 -109 0 
1 84 -65 0 
1 126 73 0 
1 149 15 0 
1 -94 131 0 
1 47 -137 0 
1 11 110 0 
1 24 18 0 
1 -52 -43 0 
1 -47 53 0 
1 -143 126 0 
1 -27 -96 0 
1 41 60 0 
1 22 108 0 
1 -131 33 0 
1 -136 -22 0 
1 159 87 0 
1 91 129 0 
1 -72 140 0 
1 -10 -136 0 
1 150 10 0 
1 -56 78 0 
1 49 30 0 
1 -146 94 0 
1 20 90 0 
1 104 -54 0 
1 -57 87 0 
1 141 -94 0 
1 -75 13 0 
1 119 -93 0 
1 -41 -82 0 
1 127 -155 0 
1 39 69 0 
1 40 112 0 
1 30 -4 0 
1 130 -54 0 
1 -123 -44 0 
1 88 150 0 
1 -9 -20 0 
1 -28 -17 0 
1 74 -24 0 
1 125 33 0 
1 -91 -81 0 
1 -130 3 0 
1 -82 91 0 
1 -85 44 0 
1 -44 -13 0 
1 40 60 0 
1 -39 -101 0 
1 155 -156 0 
1 -116 133 0 
1 -83 86 0 
1 35 -149 0 
1 98 -142 0 
1 -157 -47 0 
1 71 45 0 
1 14 152 0 
1 -29 115 0 
1 6 -58 0 
1 8 108 0 
1 49 121 0 
1 -14 107 0 
1 -95 35 0 
1 -144 -29 0 
1 -112 102 0 
1 51 -155 0 
1 -112 144 0 
1 95 49 0 
1 -69 39 0 
1 -133 -44 0 
1 141 128 0 
1 -34 156 0 
1 86 -14 0 
1 92 -36 0 
1 -8 138 0 
1 24 59 0 
1 92 122 0 
1 112 5 0 
1 118 -97 0 
1 44 -12 0 
1 37 45 0 
1 82 -16 0 
1 -60 71 0 
1 47 94 0 
1 -6 -80 0 
1 80 153 0 
1 74 -37 0 
1 -44 -148 0 
1 115 111 0 
1 -47 3 0 
1 78 139 0 
1 -25 -11 0 
1 56 -105 0 
1 -35 113 0 
1 75 101 0 
1 -117 66 0 
1 -38 -134 0 
1 -95 121 0 
1 -15 66 0 
1 -37 25 0 
1 35 -131 0 
1 -153 -44 0 
1 95 27 0 
1 25 -101 0 
1 -150 131 0 
1 -121 -66 0 
1 38 153 0 
1 -18 -10 0 
1 -82 110 0 
1 116 -22 0 
1 6 87 0 
1 -9 -16 0 
1 -8 -67 0 
1 -80 -156 0 
1 -50 -10 0 
1 125 -21 0 
1 15 37 0 
1 73 -150 0 
1 150 119 0 
1 -5 -32 0 
1 -106 -125 0 
1 -62 -79 0 
1 -119 -99 0 
1 76 6 0 
1 43 -146 0 
1 -142 88 0 
1 -88 -142 0 
1 -153 -71 0 
1 130 77 0 
1 115 112 0 
1 -36 -134 0 
1 -87 -123 0 
1 -30 97 0 
1 5 -33 0 
1 152 90 0 
1 29 -34 0 
1 -26 -58 0 
1 -31 -158 0 
1 -54 118 0 
1 111 -91 0 
1 -67 13 0 
1 30 107 0 
1 -79 -78 0 
1 -1 -151 0 
1 -52 122 0 
1 122 9 0 
1 -127 41 0 
1 -133 39 0 
1 -118 -50 0 
1 -128 127 0 
1 -62 99 0 
1 -126 31 0 
1 54 -127 0 
1 73 65 0 
1 33 141 0 
1 -147 82 0 
1 95 94 0 
1 -97 113 0 
1 48 11 0 
1 -107 -128 0 
1 -26 7 0 
1 3 64 0 
1 121 142 0 
1 -16 111 0 
1 63 -149 0 
1 117 -115 0 
1 10 98 0 
1 -150 -10 0 
1 -14 19 0 
1 -150 26 0 
1 86 8 0 
1 39 66 0 
1 -145 19 0 
1 -2 -18 0 
1 -143 100 0 
1 -35 66 0 
1 44 106 0 
1 -73 -101 0 
1 2 105 0 
1 -143 58 0 
1 55 -117 0 
1 -29 -152 0 
1 94 -95 0 
1 -45 -54 0 
1 -94 -6 0 
1 19 70 0 
1 36 -20 0 
1 71 60 0 
1 1 -85 0 
1 61 59 0 
1 42 -4 0 
1 -64 -103 0 
1 50 -135 0 
1 86 -11 0 
1 -81 -65 0 
1 142 135 0 
1 -75 -38 0 
1 -136 26 0 
1 152 45 0 
1 41 158 0 
1 -99 91 0 
1 130 -143 0 
1 103 -130 0 
1 -94 -22 0 
1 -85 153 0 
1 -152 -1 0 
1 60 55 0 
1 -6 41 0 
1 82 131 0 
1 100 18 0 
1 37 105 0 
1 54 -74 0 
1 -7 119 0 
1 -80 -83 0 
1 22 -48 0 
1 141 -19 0 
1 -129 -63 0 
1 109 -106 0 
1 -99 -20 0 
1 -127 -99 0 
1 59 112 0 
1 -31 -80 0 
1 88 124 0 
1 150 141 0 
1 48 -75 0 
1 42 143 0 
1 116 147 0 
1 9 -144 0 
1 -137 116 0 
1 154 -19 0 
1 140 121 0 
1 -64 121 0 
1 125 -126 0 
1 -15 -114 0 
1 -105 96 0 
1 54 104 0 
1 -35 107 0 
1 -43 99 0 
1 29 18 0 
1 5 76 0 
1 -11 98 0 
1 -144 32 0 
1 -30 -65 0 
1 -133 107 0 
1 71 95 0 
1 20 129 0 
1 40 -131 0 
1 140 71 0 
1 -143 -115 0 
1 95 127 0 
1 150 126 0 
1 37 87 0 
1 -133 93 0 
1 3 -5 0 
1 -139 -118 0 
1 -41 -102 0 
1 -112 -139 0 
1 136 30 0 
1 -155 -80 0 
1 69 103 0 
1 -90 -84 0 
1 -146 -113 0 
1 -28 -74 0 
1 -141 -65 0 
1 1 78 0 
1 -53 -135 0 
1 152 10 0 
1 78 83 0 
1 3 65 0 
1 47 -54 0 
1 128 -79 0 
1 9 151 0 
1 18 158 0 
1 39 -70 0 
1 23 4 0 
1 7 -147 0 
1 8 54 0 
1 140 -136 0 
1 139 -59 0 
1 11 117 0 
